certificates/rado_a15_c87_N38.cnf
c Rad2 upper bound instance: x1 + 15*x2 - x3 = 87, interval [1,38]
p cnf 38 194
1 4 6 0
-1 -4 -6 0
1 7 19 0
-1 -7 -19 0
1 8 34 0
-1 -8 -34 0
2 5 6 0
-2 -5 -6 0
2 7 20 0
-2 -7 -20 0
2 8 35 0
-2 -8 -35 0
3 6 0
-3 -6 0
3 7 21 0
-3 -7 -21 0
3 8 36 0
-3 -8 -36 0
4 6 7 0
-4 -6 -7 0
4 7 22 0
-4 -7 -22 0
4 8 37 0
-4 -8 -37 0
5 6 8 0
-5 -6 -8 0
5 7 23 0
-5 -7 -23 0
5 8 38 0
-5 -8 -38 0
6 9 0
-6 -9 0
6 7 24 0
-6 -7 -24 0
6 7 10 0
-6 -7 -10 0
7 25 0
-7 -25 0
6 8 11 0
-6 -8 -11 0
7 8 26 0
-7 -8 -26 0
6 9 12 0
-6 -9 -12 0
7 9 27 0
-7 -9 -27 0
6 10 13 0
-6 -10 -13 0
7 10 28 0
-7 -10 -28 0
6 11 14 0
-6 -11 -14 0
7 11 29 0
-7 -11 -29 0
6 12 15 0
-6 -12 -15 0
7 12 30 0
-7 -12 -30 0
1 5 13 0
-1 -5 -13 0
6 13 16 0
-6 -13 -16 0
7 13 31 0
-7 -13 -31 0
2 5 14 0
-2 -5 -14 0
6 14 17 0
-6 -14 -17 0
7 14 32 0
-7 -14 -32 0
3 5 15 0
-3 -5 -15 0
6 15 18 0
-6 -15 -18 0
7 15 33 0
-7 -15 -33 0
4 5 16 0
-4 -5 -16 0
6 16 19 0
-6 -16 -19 0
7 16 34 0
-7 -16 -34 0
5 17 0
-5 -17 0
6 17 20 0
-6 -17 -20 0
7 17 35 0
-7 -17 -35 0
5 6 18 0
-5 -6 -18 0
6 18 21 0
-6 -18 -21 0
7 18 36 0
-7 -18 -36 0
5 7 19 0
-5 -7 -19 0
6 19 22 0
-6 -19 -22 0
7 19 37 0
-7 -19 -37 0
5 8 20 0
-5 -8 -20 0
6 20 23 0
-6 -20 -23 0
7 20 38 0
-7 -20 -38 0
5 9 21 0
-5 -9 -21 0
6 21 24 0
-6 -21 -24 0
5 10 22 0
-5 -10 -22 0
6 22 25 0
-6 -22 -25 0
5 11 23 0
-5 -11 -23 0
6 23 26 0
-6 -23 -26 0
5 12 24 0
-5 -12 -24 0
6 24 27 0
-6 -24 -27 0
5 13 25 0
-5 -13 -25 0
6 25 28 0
-6 -25 -28 0
5 14 26 0
-5 -14 -26 0
6 26 29 0
-6 -26 -29 0
5 15 27 0
-5 -15 -27 0
6 27 30 0
-6 -27 -30 0
1 4 28 0
-1 -4 -28 0
5 16 28 0
-5 -16 -28 0
6 28 31 0
-6 -28 -31 0
2 4 29 0
-2 -4 -29 0
5 17 29 0
-5 -17 -29 0
6 29 32 0
-6 -29 -32 0
3 4 30 0
-3 -4 -30 0
5 18 30 0
-5 -18 -30 0
6 30 33 0
-6 -30 -33 0
4 31 0
-4 -31 0
5 19 31 0
-5 -19 -31 0
6 31 34 0
-6 -31 -34 0
4 5 32 0
-4 -5 -32 0
5 20 32 0
-5 -20 -32 0
6 32 35 0
-6 -32 -35 0
4 6 33 0
-4 -6 -33 0
5 21 33 0
-5 -21 -33 0
6 33 36 0
-6 -33 -36 0
4 7 34 0
-4 -7 -34 0
5 22 34 0
-5 -22 -34 0
6 34 37 0
-6 -34 -37 0
4 8 35 0
-4 -8 -35 0
5 23 35 0
-5 -23 -35 0
6 35 38 0
-6 -35 -38 0
4 9 36 0
-4 -9 -36 0
5 24 36 0
-5 -24 -36 0
4 10 37 0
-4 -10 -37 0
5 25 37 0
-5 -25 -37 0
4 11 38 0
-4 -11 -38 0
5 26 38 0
-5 -26 -38 0
