certificates/rado_a15_c87_N38.drat
6 -36 0
15 33 35 -6 0
8 34 35 -6 0
-36 -37 -38 0
-8 -37 -38 0
-37 -38 0
d -36 -37 -38 0
8 36 -38 0
6 5 -38 0
36 -38 0
d 8 36 -38 0
5 -38 0
d 6 5 -38 0
-6 -38 0
d -35 -6 -38 0
-38 0
7 32 8 0
-6 8 0
d 34 35 -6 8 0
8 0
6 0
-3 0
-9 0
-5 0
-11 0
17 0
26 0
15 0
21 0
4 0
23 0
-20 0
-14 0
-29 0
0
